NAME : X-n317-k53
COMMENT : "Generated by Uchoa, Pecin, Pessoa, Poggi, Subramanian, and Vidal (2013)"
TYPE : CVRP
DIMENSION : 317
EDGE_WEIGHT_TYPE : EUC_2D
CAPACITY : 6
NODE_COORD_SECTION
1 0 0
2 971 544
3 564 976
4 266 4
5 395 95
6 379 271
7 936 538
8 980 578
9 242 92
10 476 74
11 247 159
12 359 108
13 473 941
14 490 947
15 548 950
16 389 864
17 916 664
18 212 91
19 415 182
20 961 553
21 423 232
22 596 931
23 955 566
24 534 93
25 252 6
26 950 580
27 517 950
28 942 618
29 636 981
30 629 809
31 508 35
32 108 130
33 391 19
34 208 183
35 991 680
36 428 48
37 272 220
38 931 581
39 327 128
40 966 514
41 313 202
42 267 1
43 404 925
44 985 594
45 895 429
46 348 12
47 316 258
48 238 20
49 970 490
50 854 586
51 293 104
52 628 919
53 880 597
54 353 241
55 753 728
56 291 93
57 993 439
58 382 125
59 230 36
60 984 471
61 489 23
62 277 137
63 593 171
64 378 204
65 411 87
66 207 85
67 538 991
68 906 631
69 343 72
70 445 68
71 673 268
72 576 951
73 388 66
74 953 504
75 434 145
76 530 11
77 632 879
78 541 968
79 353 851
80 629 868
81 593 896
82 936 411
83 272 40
84 276 93
85 469 169
86 359 894
87 548 998
88 52 69
89 397 58
90 507 145
91 451 162
92 646 996
93 532 906
94 220 126
95 536 831
96 482 212
97 137 53
98 511 991
99 978 506
100 300 111
101 907 711
102 908 488
103 222 137
104 266 48
105 423 67
106 268 125
107 434 25
108 548 982
109 511 888
110 371 256
111 440 179
112 331 82
113 965 439
114 545 968
115 447 40
116 785 664
117 915 669
118 468 98
119 247 6
120 271 70
121 260 110
122 902 679
123 926 874
124 587 988
125 368 419
126 351 158
127 967 685
128 559 968
129 278 56
130 877 507
131 353 164
132 984 540
133 380 89
134 886 376
135 943 408
136 420 204
137 386 78
138 219 18
139 497 961
140 542 965
141 718 869
142 297 45
143 414 69
144 606 959
145 575 99
146 330 101
147 364 74
148 257 22
149 371 64
150 600 994
151 951 536
152 534 896
153 297 96
154 467 149
155 438 917
156 385 883
157 233 239
158 481 945
159 414 128
160 602 752
161 592 151
162 267 82
163 587 946
164 728 991
165 242 136
166 292 9
167 916 480
168 494 918
169 2 149
170 24 105
171 933 577
172 227 49
173 651 947
174 991 512
175 805 704
176 253 66
177 628 824
178 199 18
179 833 534
180 633 864
181 343 42
182 565 991
183 603 996
184 404 30
185 434 92
186 822 465
187 393 81
188 351 78
189 390 56
190 536 967
191 553 985
192 652 868
193 472 900
194 824 545
195 370 189
196 196 21
197 524 974
198 590 878
199 551 951
200 480 48
201 384 185
202 327 228
203 567 966
204 537 964
205 929 577
206 491 141
207 336 12
208 496 953
209 149 57
210 394 63
211 250 252
212 238 63
213 245 222
214 263 50
215 231 37
216 512 13
217 868 481
218 994 635
219 697 87
220 989 535
221 462 954
222 355 240
223 335 89
224 817 544
225 501 154
226 196 66
227 389 36
228 413 62
229 277 111
230 245 95
231 878 469
232 407 109
233 326 52
234 999 601
235 974 433
236 578 969
237 548 784
238 519 21
239 436 135
240 986 436
241 483 19
242 420 197
243 417 122
244 825 609
245 347 96
246 967 530
247 749 542
248 271 20
249 307 72
250 420 130
251 821 398
252 147 97
253 950 512
254 394 190
255 962 584
256 934 530
257 611 926
258 323 185
259 966 530
260 378 189
261 334 189
262 340 77
263 265 136
264 303 315
265 533 852
266 562 977
267 995 477
268 862 649
269 379 190
270 935 565
271 178 11
272 465 237
273 214 179
274 479 913
275 903 530
276 379 102
277 268 8
278 922 511
279 403 33
280 289 71
281 474 196
282 374 90
283 557 25
284 957 581
285 134 103
286 554 116
287 392 111
288 200 392
289 929 514
290 521 905
291 341 210
292 394 77
293 339 130
294 938 635
295 315 258
296 970 710
297 376 48
298 402 128
299 954 450
300 528 302
301 433 137
302 353 113
303 611 991
304 235 12
305 544 988
306 958 520
307 521 76
308 334 23
309 264 63
310 591 913
311 532 972
312 589 956
313 568 972
314 983 621
315 418 817
316 312 39
317 334 176
PICKUP_AND_DELIVERY_SECTION
1 0 0 1000000000 0 0 0
2 0 0 1000000000 0 0.5602 0.4398
3 0 0 1000000000 0 0.5779 0.4221
4 0 0 1000000000 0 0.01504 0.985
5 0 0 1000000000 0 0.2405 0.7595
6 0 0 1000000000 0 0.715 0.285
7 0 0 1000000000 0 0.5748 0.4252
8 0 0 1000000000 0 0.5898 0.4102
9 0 0 1000000000 0 0.3802 0.6198
10 0 0 1000000000 0 0.1555 0.8445
11 0 0 1000000000 0 0.6437 0.3563
12 0 0 1000000000 0 0.3008 0.6992
13 0 0 1000000000 0 0.5027 0.4973
14 0 0 1000000000 0 0.5174 0.4826
15 0 0 1000000000 0 0.5768 0.4232
16 0 0 1000000000 0 0.4502 0.5498
17 0 0 1000000000 0 0.7249 0.2751
18 0 0 1000000000 0 0.4292 0.5708
19 0 0 1000000000 0 0.4386 0.5614
20 0 0 1000000000 0 0.5754 0.4246
21 0 0 1000000000 0 0.5485 0.4515
22 0 0 1000000000 0 0.6402 0.3598
23 0 0 1000000000 0 0.5927 0.4073
24 0 0 1000000000 0 0.1742 0.8258
25 0 0 1000000000 0 0.02381 0.9762
26 0 0 1000000000 0 0.6105 0.3895
27 0 0 1000000000 0 0.5442 0.4558
28 0 0 1000000000 0 0.6561 0.3439
29 0 0 1000000000 0 0.6483 0.3517
30 0 0 1000000000 0 0.7775 0.2225
31 0 0 1000000000 0 0.0689 0.9311
32 0 0 1000000000 0 0.8308 0.1692
33 0 0 1000000000 0 0.04859 0.9514
34 0 0 1000000000 0 0.8798 0.1202
35 0 0 1000000000 0 0.6862 0.3138
36 0 0 1000000000 0 0.1121 0.8879
37 0 0 1000000000 0 0.8088 0.1912
38 0 0 1000000000 0 0.6241 0.3759
39 0 0 1000000000 0 0.3914 0.6086
40 0 0 1000000000 0 0.5321 0.4679
41 0 0 1000000000 0 0.6454 0.3546
42 0 0 1000000000 0 0.00375 0.9963
43 0 0 1000000000 0 0.4368 0.5632
44 0 0 1000000000 0 0.603 0.397
45 0 0 1000000000 0 0.4793 0.5207
46 0 0 1000000000 0 0.03448 0.9655
47 0 0 1000000000 0 0.8165 0.1835
48 0 0 1000000000 0 0.08403 0.916
49 0 0 1000000000 0 0.5052 0.4948
50 0 0 1000000000 0 0.6862 0.3138
51 0 0 1000000000 0 0.3549 0.6451
52 0 0 1000000000 0 0.6834 0.3166
53 0 0 1000000000 0 0.6784 0.3216
54 0 0 1000000000 0 0.6827 0.3173
55 0 0 1000000000 0 0.9668 0.0332
56 0 0 1000000000 0 0.3196 0.6804
57 0 0 1000000000 0 0.4421 0.5579
58 0 0 1000000000 0 0.3272 0.6728
59 0 0 1000000000 0 0.1565 0.8435
60 0 0 1000000000 0 0.4787 0.5213
61 0 0 1000000000 0 0.04703 0.953
62 0 0 1000000000 0 0.4946 0.5054
63 0 0 1000000000 0 0.2884 0.7116
64 0 0 1000000000 0 0.5397 0.4603
65 0 0 1000000000 0 0.2117 0.7883
66 0 0 1000000000 0 0.4106 0.5894
67 0 0 1000000000 0 0.5429 0.4571
68 0 0 1000000000 0 0.6965 0.3035
69 0 0 1000000000 0 0.2099 0.7901
70 0 0 1000000000 0 0.1528 0.8472
71 0 0 1000000000 0 0.3982 0.6018
72 0 0 1000000000 0 0.6057 0.3943
73 0 0 1000000000 0 0.1701 0.8299
74 0 0 1000000000 0 0.5289 0.4711
75 0 0 1000000000 0 0.3341 0.6659
76 0 0 1000000000 0 0.02075 0.9792
77 0 0 1000000000 0 0.719 0.281
78 0 0 1000000000 0 0.5589 0.4411
79 0 0 1000000000 0 0.4148 0.5852
80 0 0 1000000000 0 0.7247 0.2753
81 0 0 1000000000 0 0.6618 0.3382
82 0 0 1000000000 0 0.4391 0.5609
83 0 0 1000000000 0 0.1471 0.8529
84 0 0 1000000000 0 0.337 0.663
85 0 0 1000000000 0 0.3603 0.6397
86 0 0 1000000000 0 0.4016 0.5984
87 0 0 1000000000 0 0.5491 0.4509
88 0 0 1000000000 0 0.7536 0.2464
89 0 0 1000000000 0 0.1461 0.8539
90 0 0 1000000000 0 0.286 0.714
91 0 0 1000000000 0 0.3592 0.6408
92 0 0 1000000000 0 0.6486 0.3514
93 0 0 1000000000 0 0.5872 0.4128
94 0 0 1000000000 0 0.5727 0.4273
95 0 0 1000000000 0 0.645 0.355
96 0 0 1000000000 0 0.4398 0.5602
97 0 0 1000000000 0 0.3869 0.6131
98 0 0 1000000000 0 0.5156 0.4844
99 0 0 1000000000 0 0.5174 0.4826
100 0 0 1000000000 0 0.37 0.63
101 0 0 1000000000 0 0.7839 0.2161
102 0 0 1000000000 0 0.5374 0.4626
103 0 0 1000000000 0 0.6171 0.3829
104 0 0 1000000000 0 0.1805 0.8195
105 0 0 1000000000 0 0.1584 0.8416
106 0 0 1000000000 0 0.4664 0.5336
107 0 0 1000000000 0 0.0576 0.9424
108 0 0 1000000000 0 0.558 0.442
109 0 0 1000000000 0 0.5755 0.4245
110 0 0 1000000000 0 0.69 0.31
111 0 0 1000000000 0 0.4068 0.5932
112 0 0 1000000000 0 0.2477 0.7523
113 0 0 1000000000 0 0.4549 0.5451
114 0 0 1000000000 0 0.563 0.437
115 0 0 1000000000 0 0.08949 0.9105
116 0 0 1000000000 0 0.8459 0.1541
117 0 0 1000000000 0 0.7311 0.2689
118 0 0 1000000000 0 0.2094 0.7906
119 0 0 1000000000 0 0.02429 0.9757
120 0 0 1000000000 0 0.2583 0.7417
121 0 0 1000000000 0 0.4231 0.5769
122 0 0 1000000000 0 0.7528 0.2472
123 0 0 1000000000 0 0.9438 0.05616
124 0 0 1000000000 0 0.5941 0.4059
125 0 0 1000000000 0 0.8783 0.1217
126 0 0 1000000000 0 0.4501 0.5499
127 0 0 1000000000 0 0.7084 0.2916
128 0 0 1000000000 0 0.5775 0.4225
129 0 0 1000000000 0 0.2014 0.7986
130 0 0 1000000000 0 0.5781 0.4219
131 0 0 1000000000 0 0.4646 0.5354
132 0 0 1000000000 0 0.5488 0.4512
133 0 0 1000000000 0 0.2342 0.7658
134 0 0 1000000000 0 0.4244 0.5756
135 0 0 1000000000 0 0.4327 0.5673
136 0 0 1000000000 0 0.4857 0.5143
137 0 0 1000000000 0 0.2021 0.7979
138 0 0 1000000000 0 0.08219 0.9178
139 0 0 1000000000 0 0.5172 0.4828
140 0 0 1000000000 0 0.5617 0.4383
141 0 0 1000000000 0 0.8262 0.1738
142 0 0 1000000000 0 0.1515 0.8485
143 0 0 1000000000 0 0.1667 0.8333
144 0 0 1000000000 0 0.6319 0.3681
145 0 0 1000000000 0 0.1722 0.8278
146 0 0 1000000000 0 0.3061 0.6939
147 0 0 1000000000 0 0.2033 0.7967
148 0 0 1000000000 0 0.0856 0.9144
149 0 0 1000000000 0 0.1725 0.8275
150 0 0 1000000000 0 0.6036 0.3964
151 0 0 1000000000 0 0.5636 0.4364
152 0 0 1000000000 0 0.596 0.404
153 0 0 1000000000 0 0.3232 0.6768
154 0 0 1000000000 0 0.3191 0.6809
155 0 0 1000000000 0 0.4776 0.5224
156 0 0 1000000000 0 0.436 0.564
157 0 0 1000000000 0 0.9749 0.0251
158 0 0 1000000000 0 0.509 0.491
159 0 0 1000000000 0 0.3092 0.6908
160 0 0 1000000000 0 0.8005 0.1995
161 0 0 1000000000 0 0.2551 0.7449
162 0 0 1000000000 0 0.3071 0.6929
163 0 0 1000000000 0 0.6205 0.3795
164 0 0 1000000000 0 0.7346 0.2654
165 0 0 1000000000 0 0.562 0.438
166 0 0 1000000000 0 0.03082 0.9692
167 0 0 1000000000 0 0.524 0.476
168 0 0 1000000000 0 0.5381 0.4619
169 0 0 1000000000 0 0.01342 0.9866
170 0 0 1000000000 0 0.2286 0.7714
171 0 0 1000000000 0 0.6184 0.3816
172 0 0 1000000000 0 0.2159 0.7841
173 0 0 1000000000 0 0.6874 0.3126
174 0 0 1000000000 0 0.5166 0.4834
175 0 0 1000000000 0 0.8745 0.1255
176 0 0 1000000000 0 0.2609 0.7391
177 0 0 1000000000 0 0.7621 0.2379
178 0 0 1000000000 0 0.09045 0.9095
179 0 0 1000000000 0 0.6411 0.3589
180 0 0 1000000000 0 0.7326 0.2674
181 0 0 1000000000 0 0.1224 0.8776
182 0 0 1000000000 0 0.5701 0.4299
183 0 0 1000000000 0 0.6054 0.3946
184 0 0 1000000000 0 0.07426 0.9257
185 0 0 1000000000 0 0.212 0.788
186 0 0 1000000000 0 0.5657 0.4343
187 0 0 1000000000 0 0.2061 0.7939
188 0 0 1000000000 0 0.2222 0.7778
189 0 0 1000000000 0 0.1436 0.8564
190 0 0 1000000000 0 0.5543 0.4457
191 0 0 1000000000 0 0.5614 0.4386
192 0 0 1000000000 0 0.7512 0.2488
193 0 0 1000000000 0 0.5244 0.4756
194 0 0 1000000000 0 0.6614 0.3386
195 0 0 1000000000 0 0.5108 0.4892
196 0 0 1000000000 0 0.1071 0.8929
197 0 0 1000000000 0 0.538 0.462
198 0 0 1000000000 0 0.672 0.328
199 0 0 1000000000 0 0.5794 0.4206
200 0 0 1000000000 0 0.1 0.9
201 0 0 1000000000 0 0.4818 0.5182
202 0 0 1000000000 0 0.6972 0.3028
203 0 0 1000000000 0 0.587 0.413
204 0 0 1000000000 0 0.5571 0.4429
205 0 0 1000000000 0 0.6211 0.3789
206 0 0 1000000000 0 0.2872 0.7128
207 0 0 1000000000 0 0.03571 0.9643
208 0 0 1000000000 0 0.5205 0.4795
209 0 0 1000000000 0 0.3826 0.6174
210 0 0 1000000000 0 0.1599 0.8401
211 0 0 1000000000 0 0.9921 0.00794
212 0 0 1000000000 0 0.2647 0.7353
213 0 0 1000000000 0 0.9061 0.09388
214 0 0 1000000000 0 0.1901 0.8099
215 0 0 1000000000 0 0.1602 0.8398
216 0 0 1000000000 0 0.02539 0.9746
217 0 0 1000000000 0 0.5541 0.4459
218 0 0 1000000000 0 0.6388 0.3612
219 0 0 1000000000 0 0.1248 0.8752
220 0 0 1000000000 0 0.541 0.459
221 0 0 1000000000 0 0.4843 0.5157
222 0 0 1000000000 0 0.6761 0.3239
223 0 0 1000000000 0 0.2657 0.7343
224 0 0 1000000000 0 0.6659 0.3341
225 0 0 1000000000 0 0.3074 0.6926
226 0 0 1000000000 0 0.3367 0.6633
227 0 0 1000000000 0 0.09254 0.9075
228 0 0 1000000000 0 0.1501 0.8499
229 0 0 1000000000 0 0.4007 0.5993
230 0 0 1000000000 0 0.3878 0.6122
231 0 0 1000000000 0 0.5342 0.4658
232 0 0 1000000000 0 0.2678 0.7322
233 0 0 1000000000 0 0.1595 0.8405
234 0 0 1000000000 0 0.6016 0.3984
235 0 0 1000000000 0 0.4446 0.5554
236 0 0 1000000000 0 0.5965 0.4035
237 0 0 1000000000 0 0.699 0.301
238 0 0 1000000000 0 0.04046 0.9595
239 0 0 1000000000 0 0.3096 0.6904
240 0 0 1000000000 0 0.4422 0.5578
241 0 0 1000000000 0 0.03934 0.9607
242 0 0 1000000000 0 0.469 0.531
243 0 0 1000000000 0 0.2926 0.7074
244 0 0 1000000000 0 0.7382 0.2618
245 0 0 1000000000 0 0.2767 0.7233
246 0 0 1000000000 0 0.5481 0.4519
247 0 0 1000000000 0 0.7236 0.2764
248 0 0 1000000000 0 0.0738 0.9262
249 0 0 1000000000 0 0.2345 0.7655
250 0 0 1000000000 0 0.3095 0.6905
251 0 0 1000000000 0 0.4848 0.5152
252 0 0 1000000000 0 0.6599 0.3401
253 0 0 1000000000 0 0.5389 0.4611
254 0 0 1000000000 0 0.4822 0.5178
255 0 0 1000000000 0 0.6071 0.3929
256 0 0 1000000000 0 0.5675 0.4325
257 0 0 1000000000 0 0.6598 0.3402
258 0 0 1000000000 0 0.5728 0.4272
259 0 0 1000000000 0 0.5487 0.4513
260 0 0 1000000000 0 0.5 0.5
261 0 0 1000000000 0 0.5659 0.4341
262 0 0 1000000000 0 0.2265 0.7735
263 0 0 1000000000 0 0.5132 0.4868
264 0 0 1000000000 0 0.9619 0.0381
265 0 0 1000000000 0 0.6256 0.3744
266 0 0 1000000000 0 0.5752 0.4248
267 0 0 1000000000 0 0.4794 0.5206
268 0 0 1000000000 0 0.7529 0.2471
269 0 0 1000000000 0 0.5013 0.4987
270 0 0 1000000000 0 0.6043 0.3957
271 0 0 1000000000 0 0.0618 0.9382
272 0 0 1000000000 0 0.5097 0.4903
273 0 0 1000000000 0 0.8364 0.1636
274 0 0 1000000000 0 0.5246 0.4754
275 0 0 1000000000 0 0.5869 0.4131
276 0 0 1000000000 0 0.2691 0.7309
277 0 0 1000000000 0 0.02985 0.9701
278 0 0 1000000000 0 0.5542 0.4458
279 0 0 1000000000 0 0.08189 0.9181
280 0 0 1000000000 0 0.2457 0.7543
281 0 0 1000000000 0 0.4135 0.5865
282 0 0 1000000000 0 0.2406 0.7594
283 0 0 1000000000 0 0.04488 0.9551
284 0 0 1000000000 0 0.6071 0.3929
285 0 0 1000000000 0 0.7687 0.2313
286 0 0 1000000000 0 0.2094 0.7906
287 0 0 1000000000 0 0.2832 0.7168
288 0 0 1000000000 0 0.5102 0.4898
289 0 0 1000000000 0 0.5533 0.4467
290 0 0 1000000000 0 0.5757 0.4243
291 0 0 1000000000 0 0.6158 0.3842
292 0 0 1000000000 0 0.1954 0.8046
293 0 0 1000000000 0 0.3835 0.6165
294 0 0 1000000000 0 0.677 0.323
295 0 0 1000000000 0 0.819 0.181
296 0 0 1000000000 0 0.732 0.268
297 0 0 1000000000 0 0.1277 0.8723
298 0 0 1000000000 0 0.3184 0.6816
299 0 0 1000000000 0 0.4717 0.5283
300 0 0 1000000000 0 0.572 0.428
301 0 0 1000000000 0 0.3164 0.6836
302 0 0 1000000000 0 0.3201 0.6799
303 0 0 1000000000 0 0.6165 0.3835
304 0 0 1000000000 0 0.05106 0.9489
305 0 0 1000000000 0 0.5506 0.4494
306 0 0 1000000000 0 0.5428 0.4572
307 0 0 1000000000 0 0.1459 0.8541
308 0 0 1000000000 0 0.06886 0.9311
309 0 0 1000000000 0 0.2386 0.7614
310 0 0 1000000000 0 0.6473 0.3527
311 0 0 1000000000 0 0.5473 0.4527
312 0 0 1000000000 0 0.6161 0.3839
313 0 0 1000000000 0 0.5844 0.4156
314 0 0 1000000000 0 0.6317 0.3683
315 0 0 1000000000 0 0.5116 0.4884
316 0 0 1000000000 0 0.125 0.875
317 0 0 1000000000 0 0.5269 0.4731
